10
14
0 126 106 103 42 88 93 112 31 35 83 118 76 102
12
0 79 45 19 92 105 52 119 57 48 71 90
15
0 33 26 18 14 28 109 97 24 47 67 62 69 96 25
16
0 1 117 53 34 3 41 43 39 46 22 13 9 95 66 12
11
0 15 127 104 111 61 27 114 82 29 58
15
0 70 129 49 17 20 32 21 36 121 54 50 59 5 101
14
0 44 4 10 75 108 60 128 123 63 68 85 87 6
15
0 40 38 116 2 113 107 7 125 120 77 89 124 84 65
14
0 16 115 94 78 37 91 72 98 73 74 51 8 56
13
0 30 99 23 80 86 11 64 55 81 100 122 110
